certificates/rado_a6_c226_N38.cnf
c Rad2 upper bound instance: x1 + 6*x2 - x3 = 226, interval [1,38]
p cnf 38 300
1 3 38 0
-1 -3 -38 0
2 4 38 0
-2 -4 -38 0
3 5 38 0
-3 -5 -38 0
4 6 38 0
-4 -6 -38 0
1 5 37 0
-1 -5 -37 0
5 7 38 0
-5 -7 -38 0
2 6 37 0
-2 -6 -37 0
6 8 38 0
-6 -8 -38 0
3 7 37 0
-3 -7 -37 0
7 9 38 0
-7 -9 -38 0
4 8 37 0
-4 -8 -37 0
8 10 38 0
-8 -10 -38 0
5 9 37 0
-5 -9 -37 0
9 11 38 0
-9 -11 -38 0
6 10 37 0
-6 -10 -37 0
10 12 38 0
-10 -12 -38 0
1 11 36 0
-1 -11 -36 0
7 11 37 0
-7 -11 -37 0
11 13 38 0
-11 -13 -38 0
2 12 36 0
-2 -12 -36 0
8 12 37 0
-8 -12 -37 0
12 14 38 0
-12 -14 -38 0
3 13 36 0
-3 -13 -36 0
9 13 37 0
-9 -13 -37 0
13 15 38 0
-13 -15 -38 0
4 14 36 0
-4 -14 -36 0
10 14 37 0
-10 -14 -37 0
14 16 38 0
-14 -16 -38 0
5 15 36 0
-5 -15 -36 0
11 15 37 0
-11 -15 -37 0
15 17 38 0
-15 -17 -38 0
6 16 36 0
-6 -16 -36 0
12 16 37 0
-12 -16 -37 0
16 18 38 0
-16 -18 -38 0
1 17 35 0
-1 -17 -35 0
7 17 36 0
-7 -17 -36 0
13 17 37 0
-13 -17 -37 0
17 19 38 0
-17 -19 -38 0
2 18 35 0
-2 -18 -35 0
8 18 36 0
-8 -18 -36 0
14 18 37 0
-14 -18 -37 0
18 20 38 0
-18 -20 -38 0
3 19 35 0
-3 -19 -35 0
9 19 36 0
-9 -19 -36 0
15 19 37 0
-15 -19 -37 0
19 21 38 0
-19 -21 -38 0
4 20 35 0
-4 -20 -35 0
10 20 36 0
-10 -20 -36 0
16 20 37 0
-16 -20 -37 0
20 22 38 0
-20 -22 -38 0
5 21 35 0
-5 -21 -35 0
11 21 36 0
-11 -21 -36 0
17 21 37 0
-17 -21 -37 0
21 23 38 0
-21 -23 -38 0
6 22 35 0
-6 -22 -35 0
12 22 36 0
-12 -22 -36 0
18 22 37 0
-18 -22 -37 0
22 24 38 0
-22 -24 -38 0
1 23 34 0
-1 -23 -34 0
7 23 35 0
-7 -23 -35 0
13 23 36 0
-13 -23 -36 0
19 23 37 0
-19 -23 -37 0
23 25 38 0
-23 -25 -38 0
2 24 34 0
-2 -24 -34 0
8 24 35 0
-8 -24 -35 0
14 24 36 0
-14 -24 -36 0
20 24 37 0
-20 -24 -37 0
24 26 38 0
-24 -26 -38 0
3 25 34 0
-3 -25 -34 0
9 25 35 0
-9 -25 -35 0
15 25 36 0
-15 -25 -36 0
21 25 37 0
-21 -25 -37 0
25 27 38 0
-25 -27 -38 0
4 26 34 0
-4 -26 -34 0
10 26 35 0
-10 -26 -35 0
16 26 36 0
-16 -26 -36 0
22 26 37 0
-22 -26 -37 0
26 28 38 0
-26 -28 -38 0
5 27 34 0
-5 -27 -34 0
11 27 35 0
-11 -27 -35 0
17 27 36 0
-17 -27 -36 0
23 27 37 0
-23 -27 -37 0
27 29 38 0
-27 -29 -38 0
6 28 34 0
-6 -28 -34 0
12 28 35 0
-12 -28 -35 0
18 28 36 0
-18 -28 -36 0
24 28 37 0
-24 -28 -37 0
28 30 38 0
-28 -30 -38 0
1 29 33 0
-1 -29 -33 0
7 29 34 0
-7 -29 -34 0
13 29 35 0
-13 -29 -35 0
19 29 36 0
-19 -29 -36 0
25 29 37 0
-25 -29 -37 0
29 31 38 0
-29 -31 -38 0
2 30 33 0
-2 -30 -33 0
8 30 34 0
-8 -30 -34 0
14 30 35 0
-14 -30 -35 0
20 30 36 0
-20 -30 -36 0
26 30 37 0
-26 -30 -37 0
30 32 38 0
-30 -32 -38 0
3 31 33 0
-3 -31 -33 0
9 31 34 0
-9 -31 -34 0
15 31 35 0
-15 -31 -35 0
21 31 36 0
-21 -31 -36 0
27 31 37 0
-27 -31 -37 0
31 33 38 0
-31 -33 -38 0
4 32 33 0
-4 -32 -33 0
10 32 34 0
-10 -32 -34 0
16 32 35 0
-16 -32 -35 0
22 32 36 0
-22 -32 -36 0
28 32 37 0
-28 -32 -37 0
32 34 38 0
-32 -34 -38 0
5 33 0
-5 -33 0
11 33 34 0
-11 -33 -34 0
17 33 35 0
-17 -33 -35 0
23 33 36 0
-23 -33 -36 0
29 33 37 0
-29 -33 -37 0
33 35 38 0
-33 -35 -38 0
6 33 34 0
-6 -33 -34 0
12 34 0
-12 -34 0
18 34 35 0
-18 -34 -35 0
24 34 36 0
-24 -34 -36 0
30 34 37 0
-30 -34 -37 0
34 36 38 0
-34 -36 -38 0
1 32 35 0
-1 -32 -35 0
7 33 35 0
-7 -33 -35 0
13 34 35 0
-13 -34 -35 0
19 35 0
-19 -35 0
25 35 36 0
-25 -35 -36 0
31 35 37 0
-31 -35 -37 0
35 37 38 0
-35 -37 -38 0
2 32 36 0
-2 -32 -36 0
8 33 36 0
-8 -33 -36 0
14 34 36 0
-14 -34 -36 0
20 35 36 0
-20 -35 -36 0
26 36 0
-26 -36 0
32 36 37 0
-32 -36 -37 0
36 38 0
-36 -38 0
3 32 37 0
-3 -32 -37 0
9 33 37 0
-9 -33 -37 0
15 34 37 0
-15 -34 -37 0
21 35 37 0
-21 -35 -37 0
27 36 37 0
-27 -36 -37 0
33 37 0
-33 -37 0
4 32 38 0
-4 -32 -38 0
10 33 38 0
-10 -33 -38 0
16 34 38 0
-16 -34 -38 0
22 35 38 0
-22 -35 -38 0
28 36 38 0
-28 -36 -38 0
34 37 38 0
-34 -37 -38 0
