certificates/rado_a6_c226_N38.drat
-38 0
36 0
-26 0
24 0
28 0
-14 0
-34 0
-18 0
-37 0
12 0
10 0
16 0
0
